c Shakashaka SAT instance
c Grid size: 8x8
c Variables: x(i,j,k) for i,j in [1,8], k in [1,6]
c Variable encoding: x(i,j,k) = (i-1)*8*6 + (j-1)*6 + (k-1) + 1
c k=1: triangle top-left
c k=2: triangle bottom-left
c k=3: triangle bottom-right
c k=4: triangle top-right
c k=5: white
c k=6: black
c
p cnf 384 3408
163 0
173 0
215 0
221 0
1 2 3 4 5 6 0
-1 -2 0
-1 -3 0
-1 -4 0
-1 -5 0
-1 -6 0
-2 -3 0
-2 -4 0
-2 -5 0
-2 -6 0
-3 -4 0
-3 -5 0
-3 -6 0
-4 -5 0
-4 -6 0
-5 -6 0
7 8 9 10 11 12 0
-7 -8 0
-7 -9 0
-7 -10 0
-7 -11 0
-7 -12 0
-8 -9 0
-8 -10 0
-8 -11 0
-8 -12 0
-9 -10 0
-9 -11 0
-9 -12 0
-10 -11 0
-10 -12 0
-11 -12 0
13 14 15 16 17 18 0
-13 -14 0
-13 -15 0
-13 -16 0
-13 -17 0
-13 -18 0
-14 -15 0
-14 -16 0
-14 -17 0
-14 -18 0
-15 -16 0
-15 -17 0
-15 -18 0
-16 -17 0
-16 -18 0
-17 -18 0
19 20 21 22 23 24 0
-19 -20 0
-19 -21 0
-19 -22 0
-19 -23 0
-19 -24 0
-20 -21 0
-20 -22 0
-20 -23 0
-20 -24 0
-21 -22 0
-21 -23 0
-21 -24 0
-22 -23 0
-22 -24 0
-23 -24 0
25 26 27 28 29 30 0
-25 -26 0
-25 -27 0
-25 -28 0
-25 -29 0
-25 -30 0
-26 -27 0
-26 -28 0
-26 -29 0
-26 -30 0
-27 -28 0
-27 -29 0
-27 -30 0
-28 -29 0
-28 -30 0
-29 -30 0
31 32 33 34 35 36 0
-31 -32 0
-31 -33 0
-31 -34 0
-31 -35 0
-31 -36 0
-32 -33 0
-32 -34 0
-32 -35 0
-32 -36 0
-33 -34 0
-33 -35 0
-33 -36 0
-34 -35 0
-34 -36 0
-35 -36 0
37 38 39 40 41 42 0
-37 -38 0
-37 -39 0
-37 -40 0
-37 -41 0
-37 -42 0
-38 -39 0
-38 -40 0
-38 -41 0
-38 -42 0
-39 -40 0
-39 -41 0
-39 -42 0
-40 -41 0
-40 -42 0
-41 -42 0
43 44 45 46 47 48 0
-43 -44 0
-43 -45 0
-43 -46 0
-43 -47 0
-43 -48 0
-44 -45 0
-44 -46 0
-44 -47 0
-44 -48 0
-45 -46 0
-45 -47 0
-45 -48 0
-46 -47 0
-46 -48 0
-47 -48 0
49 50 51 52 53 54 0
-49 -50 0
-49 -51 0
-49 -52 0
-49 -53 0
-49 -54 0
-50 -51 0
-50 -52 0
-50 -53 0
-50 -54 0
-51 -52 0
-51 -53 0
-51 -54 0
-52 -53 0
-52 -54 0
-53 -54 0
55 56 57 58 59 60 0
-55 -56 0
-55 -57 0
-55 -58 0
-55 -59 0
-55 -60 0
-56 -57 0
-56 -58 0
-56 -59 0
-56 -60 0
-57 -58 0
-57 -59 0
-57 -60 0
-58 -59 0
-58 -60 0
-59 -60 0
61 62 63 64 65 66 0
-61 -62 0
-61 -63 0
-61 -64 0
-61 -65 0
-61 -66 0
-62 -63 0
-62 -64 0
-62 -65 0
-62 -66 0
-63 -64 0
-63 -65 0
-63 -66 0
-64 -65 0
-64 -66 0
-65 -66 0
67 68 69 70 71 72 0
-67 -68 0
-67 -69 0
-67 -70 0
-67 -71 0
-67 -72 0
-68 -69 0
-68 -70 0
-68 -71 0
-68 -72 0
-69 -70 0
-69 -71 0
-69 -72 0
-70 -71 0
-70 -72 0
-71 -72 0
73 74 75 76 77 78 0
-73 -74 0
-73 -75 0
-73 -76 0
-73 -77 0
-73 -78 0
-74 -75 0
-74 -76 0
-74 -77 0
-74 -78 0
-75 -76 0
-75 -77 0
-75 -78 0
-76 -77 0
-76 -78 0
-77 -78 0
79 80 81 82 83 84 0
-79 -80 0
-79 -81 0
-79 -82 0
-79 -83 0
-79 -84 0
-80 -81 0
-80 -82 0
-80 -83 0
-80 -84 0
-81 -82 0
-81 -83 0
-81 -84 0
-82 -83 0
-82 -84 0
-83 -84 0
85 86 87 88 89 90 0
-85 -86 0
-85 -87 0
-85 -88 0
-85 -89 0
-85 -90 0
-86 -87 0
-86 -88 0
-86 -89 0
-86 -90 0
-87 -88 0
-87 -89 0
-87 -90 0
-88 -89 0
-88 -90 0
-89 -90 0
91 92 93 94 95 96 0
-91 -92 0
-91 -93 0
-91 -94 0
-91 -95 0
-91 -96 0
-92 -93 0
-92 -94 0
-92 -95 0
-92 -96 0
-93 -94 0
-93 -95 0
-93 -96 0
-94 -95 0
-94 -96 0
-95 -96 0
97 98 99 100 101 102 0
-97 -98 0
-97 -99 0
-97 -100 0
-97 -101 0
-97 -102 0
-98 -99 0
-98 -100 0
-98 -101 0
-98 -102 0
-99 -100 0
-99 -101 0
-99 -102 0
-100 -101 0
-100 -102 0
-101 -102 0
103 104 105 106 107 108 0
-103 -104 0
-103 -105 0
-103 -106 0
-103 -107 0
-103 -108 0
-104 -105 0
-104 -106 0
-104 -107 0
-104 -108 0
-105 -106 0
-105 -107 0
-105 -108 0
-106 -107 0
-106 -108 0
-107 -108 0
109 110 111 112 113 114 0
-109 -110 0
-109 -111 0
-109 -112 0
-109 -113 0
-109 -114 0
-110 -111 0
-110 -112 0
-110 -113 0
-110 -114 0
-111 -112 0
-111 -113 0
-111 -114 0
-112 -113 0
-112 -114 0
-113 -114 0
115 116 117 118 119 120 0
-115 -116 0
-115 -117 0
-115 -118 0
-115 -119 0
-115 -120 0
-116 -117 0
-116 -118 0
-116 -119 0
-116 -120 0
-117 -118 0
-117 -119 0
-117 -120 0
-118 -119 0
-118 -120 0
-119 -120 0
121 122 123 124 125 126 0
-121 -122 0
-121 -123 0
-121 -124 0
-121 -125 0
-121 -126 0
-122 -123 0
-122 -124 0
-122 -125 0
-122 -126 0
-123 -124 0
-123 -125 0
-123 -126 0
-124 -125 0
-124 -126 0
-125 -126 0
127 128 129 130 131 132 0
-127 -128 0
-127 -129 0
-127 -130 0
-127 -131 0
-127 -132 0
-128 -129 0
-128 -130 0
-128 -131 0
-128 -132 0
-129 -130 0
-129 -131 0
-129 -132 0
-130 -131 0
-130 -132 0
-131 -132 0
133 134 135 136 137 138 0
-133 -134 0
-133 -135 0
-133 -136 0
-133 -137 0
-133 -138 0
-134 -135 0
-134 -136 0
-134 -137 0
-134 -138 0
-135 -136 0
-135 -137 0
-135 -138 0
-136 -137 0
-136 -138 0
-137 -138 0
139 140 141 142 143 144 0
-139 -140 0
-139 -141 0
-139 -142 0
-139 -143 0
-139 -144 0
-140 -141 0
-140 -142 0
-140 -143 0
-140 -144 0
-141 -142 0
-141 -143 0
-141 -144 0
-142 -143 0
-142 -144 0
-143 -144 0
145 146 147 148 149 150 0
-145 -146 0
-145 -147 0
-145 -148 0
-145 -149 0
-145 -150 0
-146 -147 0
-146 -148 0
-146 -149 0
-146 -150 0
-147 -148 0
-147 -149 0
-147 -150 0
-148 -149 0
-148 -150 0
-149 -150 0
151 152 153 154 155 156 0
-151 -152 0
-151 -153 0
-151 -154 0
-151 -155 0
-151 -156 0
-152 -153 0
-152 -154 0
-152 -155 0
-152 -156 0
-153 -154 0
-153 -155 0
-153 -156 0
-154 -155 0
-154 -156 0
-155 -156 0
157 158 159 160 161 162 0
-157 -158 0
-157 -159 0
-157 -160 0
-157 -161 0
-157 -162 0
-158 -159 0
-158 -160 0
-158 -161 0
-158 -162 0
-159 -160 0
-159 -161 0
-159 -162 0
-160 -161 0
-160 -162 0
-161 -162 0
163 164 165 166 167 168 0
-163 -164 0
-163 -165 0
-163 -166 0
-163 -167 0
-163 -168 0
-164 -165 0
-164 -166 0
-164 -167 0
-164 -168 0
-165 -166 0
-165 -167 0
-165 -168 0
-166 -167 0
-166 -168 0
-167 -168 0
169 170 171 172 173 174 0
-169 -170 0
-169 -171 0
-169 -172 0
-169 -173 0
-169 -174 0
-170 -171 0
-170 -172 0
-170 -173 0
-170 -174 0
-171 -172 0
-171 -173 0
-171 -174 0
-172 -173 0
-172 -174 0
-173 -174 0
175 176 177 178 179 180 0
-175 -176 0
-175 -177 0
-175 -178 0
-175 -179 0
-175 -180 0
-176 -177 0
-176 -178 0
-176 -179 0
-176 -180 0
-177 -178 0
-177 -179 0
-177 -180 0
-178 -179 0
-178 -180 0
-179 -180 0
181 182 183 184 185 186 0
-181 -182 0
-181 -183 0
-181 -184 0
-181 -185 0
-181 -186 0
-182 -183 0
-182 -184 0
-182 -185 0
-182 -186 0
-183 -184 0
-183 -185 0
-183 -186 0
-184 -185 0
-184 -186 0
-185 -186 0
187 188 189 190 191 192 0
-187 -188 0
-187 -189 0
-187 -190 0
-187 -191 0
-187 -192 0
-188 -189 0
-188 -190 0
-188 -191 0
-188 -192 0
-189 -190 0
-189 -191 0
-189 -192 0
-190 -191 0
-190 -192 0
-191 -192 0
193 194 195 196 197 198 0
-193 -194 0
-193 -195 0
-193 -196 0
-193 -197 0
-193 -198 0
-194 -195 0
-194 -196 0
-194 -197 0
-194 -198 0
-195 -196 0
-195 -197 0
-195 -198 0
-196 -197 0
-196 -198 0
-197 -198 0
199 200 201 202 203 204 0
-199 -200 0
-199 -201 0
-199 -202 0
-199 -203 0
-199 -204 0
-200 -201 0
-200 -202 0
-200 -203 0
-200 -204 0
-201 -202 0
-201 -203 0
-201 -204 0
-202 -203 0
-202 -204 0
-203 -204 0
205 206 207 208 209 210 0
-205 -206 0
-205 -207 0
-205 -208 0
-205 -209 0
-205 -210 0
-206 -207 0
-206 -208 0
-206 -209 0
-206 -210 0
-207 -208 0
-207 -209 0
-207 -210 0
-208 -209 0
-208 -210 0
-209 -210 0
211 212 213 214 215 216 0
-211 -212 0
-211 -213 0
-211 -214 0
-211 -215 0
-211 -216 0
-212 -213 0
-212 -214 0
-212 -215 0
-212 -216 0
-213 -214 0
-213 -215 0
-213 -216 0
-214 -215 0
-214 -216 0
-215 -216 0
217 218 219 220 221 222 0
-217 -218 0
-217 -219 0
-217 -220 0
-217 -221 0
-217 -222 0
-218 -219 0
-218 -220 0
-218 -221 0
-218 -222 0
-219 -220 0
-219 -221 0
-219 -222 0
-220 -221 0
-220 -222 0
-221 -222 0
223 224 225 226 227 228 0
-223 -224 0
-223 -225 0
-223 -226 0
-223 -227 0
-223 -228 0
-224 -225 0
-224 -226 0
-224 -227 0
-224 -228 0
-225 -226 0
-225 -227 0
-225 -228 0
-226 -227 0
-226 -228 0
-227 -228 0
229 230 231 232 233 234 0
-229 -230 0
-229 -231 0
-229 -232 0
-229 -233 0
-229 -234 0
-230 -231 0
-230 -232 0
-230 -233 0
-230 -234 0
-231 -232 0
-231 -233 0
-231 -234 0
-232 -233 0
-232 -234 0
-233 -234 0
235 236 237 238 239 240 0
-235 -236 0
-235 -237 0
-235 -238 0
-235 -239 0
-235 -240 0
-236 -237 0
-236 -238 0
-236 -239 0
-236 -240 0
-237 -238 0
-237 -239 0
-237 -240 0
-238 -239 0
-238 -240 0
-239 -240 0
241 242 243 244 245 246 0
-241 -242 0
-241 -243 0
-241 -244 0
-241 -245 0
-241 -246 0
-242 -243 0
-242 -244 0
-242 -245 0
-242 -246 0
-243 -244 0
-243 -245 0
-243 -246 0
-244 -245 0
-244 -246 0
-245 -246 0
247 248 249 250 251 252 0
-247 -248 0
-247 -249 0
-247 -250 0
-247 -251 0
-247 -252 0
-248 -249 0
-248 -250 0
-248 -251 0
-248 -252 0
-249 -250 0
-249 -251 0
-249 -252 0
-250 -251 0
-250 -252 0
-251 -252 0
253 254 255 256 257 258 0
-253 -254 0
-253 -255 0
-253 -256 0
-253 -257 0
-253 -258 0
-254 -255 0
-254 -256 0
-254 -257 0
-254 -258 0
-255 -256 0
-255 -257 0
-255 -258 0
-256 -257 0
-256 -258 0
-257 -258 0
259 260 261 262 263 264 0
-259 -260 0
-259 -261 0
-259 -262 0
-259 -263 0
-259 -264 0
-260 -261 0
-260 -262 0
-260 -263 0
-260 -264 0
-261 -262 0
-261 -263 0
-261 -264 0
-262 -263 0
-262 -264 0
-263 -264 0
265 266 267 268 269 270 0
-265 -266 0
-265 -267 0
-265 -268 0
-265 -269 0
-265 -270 0
-266 -267 0
-266 -268 0
-266 -269 0
-266 -270 0
-267 -268 0
-267 -269 0
-267 -270 0
-268 -269 0
-268 -270 0
-269 -270 0
271 272 273 274 275 276 0
-271 -272 0
-271 -273 0
-271 -274 0
-271 -275 0
-271 -276 0
-272 -273 0
-272 -274 0
-272 -275 0
-272 -276 0
-273 -274 0
-273 -275 0
-273 -276 0
-274 -275 0
-274 -276 0
-275 -276 0
277 278 279 280 281 282 0
-277 -278 0
-277 -279 0
-277 -280 0
-277 -281 0
-277 -282 0
-278 -279 0
-278 -280 0
-278 -281 0
-278 -282 0
-279 -280 0
-279 -281 0
-279 -282 0
-280 -281 0
-280 -282 0
-281 -282 0
283 284 285 286 287 288 0
-283 -284 0
-283 -285 0
-283 -286 0
-283 -287 0
-283 -288 0
-284 -285 0
-284 -286 0
-284 -287 0
-284 -288 0
-285 -286 0
-285 -287 0
-285 -288 0
-286 -287 0
-286 -288 0
-287 -288 0
289 290 291 292 293 294 0
-289 -290 0
-289 -291 0
-289 -292 0
-289 -293 0
-289 -294 0
-290 -291 0
-290 -292 0
-290 -293 0
-290 -294 0
-291 -292 0
-291 -293 0
-291 -294 0
-292 -293 0
-292 -294 0
-293 -294 0
295 296 297 298 299 300 0
-295 -296 0
-295 -297 0
-295 -298 0
-295 -299 0
-295 -300 0
-296 -297 0
-296 -298 0
-296 -299 0
-296 -300 0
-297 -298 0
-297 -299 0
-297 -300 0
-298 -299 0
-298 -300 0
-299 -300 0
301 302 303 304 305 306 0
-301 -302 0
-301 -303 0
-301 -304 0
-301 -305 0
-301 -306 0
-302 -303 0
-302 -304 0
-302 -305 0
-302 -306 0
-303 -304 0
-303 -305 0
-303 -306 0
-304 -305 0
-304 -306 0
-305 -306 0
307 308 309 310 311 312 0
-307 -308 0
-307 -309 0
-307 -310 0
-307 -311 0
-307 -312 0
-308 -309 0
-308 -310 0
-308 -311 0
-308 -312 0
-309 -310 0
-309 -311 0
-309 -312 0
-310 -311 0
-310 -312 0
-311 -312 0
313 314 315 316 317 318 0
-313 -314 0
-313 -315 0
-313 -316 0
-313 -317 0
-313 -318 0
-314 -315 0
-314 -316 0
-314 -317 0
-314 -318 0
-315 -316 0
-315 -317 0
-315 -318 0
-316 -317 0
-316 -318 0
-317 -318 0
319 320 321 322 323 324 0
-319 -320 0
-319 -321 0
-319 -322 0
-319 -323 0
-319 -324 0
-320 -321 0
-320 -322 0
-320 -323 0
-320 -324 0
-321 -322 0
-321 -323 0
-321 -324 0
-322 -323 0
-322 -324 0
-323 -324 0
325 326 327 328 329 330 0
-325 -326 0
-325 -327 0
-325 -328 0
-325 -329 0
-325 -330 0
-326 -327 0
-326 -328 0
-326 -329 0
-326 -330 0
-327 -328 0
-327 -329 0
-327 -330 0
-328 -329 0
-328 -330 0
-329 -330 0
331 332 333 334 335 336 0
-331 -332 0
-331 -333 0
-331 -334 0
-331 -335 0
-331 -336 0
-332 -333 0
-332 -334 0
-332 -335 0
-332 -336 0
-333 -334 0
-333 -335 0
-333 -336 0
-334 -335 0
-334 -336 0
-335 -336 0
337 338 339 340 341 342 0
-337 -338 0
-337 -339 0
-337 -340 0
-337 -341 0
-337 -342 0
-338 -339 0
-338 -340 0
-338 -341 0
-338 -342 0
-339 -340 0
-339 -341 0
-339 -342 0
-340 -341 0
-340 -342 0
-341 -342 0
343 344 345 346 347 348 0
-343 -344 0
-343 -345 0
-343 -346 0
-343 -347 0
-343 -348 0
-344 -345 0
-344 -346 0
-344 -347 0
-344 -348 0
-345 -346 0
-345 -347 0
-345 -348 0
-346 -347 0
-346 -348 0
-347 -348 0
349 350 351 352 353 354 0
-349 -350 0
-349 -351 0
-349 -352 0
-349 -353 0
-349 -354 0
-350 -351 0
-350 -352 0
-350 -353 0
-350 -354 0
-351 -352 0
-351 -353 0
-351 -354 0
-352 -353 0
-352 -354 0
-353 -354 0
355 356 357 358 359 360 0
-355 -356 0
-355 -357 0
-355 -358 0
-355 -359 0
-355 -360 0
-356 -357 0
-356 -358 0
-356 -359 0
-356 -360 0
-357 -358 0
-357 -359 0
-357 -360 0
-358 -359 0
-358 -360 0
-359 -360 0
361 362 363 364 365 366 0
-361 -362 0
-361 -363 0
-361 -364 0
-361 -365 0
-361 -366 0
-362 -363 0
-362 -364 0
-362 -365 0
-362 -366 0
-363 -364 0
-363 -365 0
-363 -366 0
-364 -365 0
-364 -366 0
-365 -366 0
367 368 369 370 371 372 0
-367 -368 0
-367 -369 0
-367 -370 0
-367 -371 0
-367 -372 0
-368 -369 0
-368 -370 0
-368 -371 0
-368 -372 0
-369 -370 0
-369 -371 0
-369 -372 0
-370 -371 0
-370 -372 0
-371 -372 0
373 374 375 376 377 378 0
-373 -374 0
-373 -375 0
-373 -376 0
-373 -377 0
-373 -378 0
-374 -375 0
-374 -376 0
-374 -377 0
-374 -378 0
-375 -376 0
-375 -377 0
-375 -378 0
-376 -377 0
-376 -378 0
-377 -378 0
379 380 381 382 383 384 0
-379 -380 0
-379 -381 0
-379 -382 0
-379 -383 0
-379 -384 0
-380 -381 0
-380 -382 0
-380 -383 0
-380 -384 0
-381 -382 0
-381 -383 0
-381 -384 0
-382 -383 0
-382 -384 0
-383 -384 0
6 0
12 0
18 0
24 0
30 0
36 0
42 0
48 0
342 0
348 0
354 0
360 0
366 0
372 0
378 0
384 0
54 0
102 0
150 0
198 0
246 0
294 0
96 0
144 0
192 0
240 0
288 0
336 0
-1 -9 0
-7 -15 0
-13 -21 0
-19 -27 0
-25 -33 0
-31 -39 0
-37 -45 0
-49 -57 0
-55 -63 0
-61 -69 0
-67 -75 0
-73 -81 0
-79 -87 0
-85 -93 0
-97 -105 0
-103 -111 0
-109 -117 0
-115 -123 0
-121 -129 0
-127 -135 0
-133 -141 0
-145 -153 0
-151 -159 0
-157 -165 0
-163 -171 0
-169 -177 0
-175 -183 0
-181 -189 0
-193 -201 0
-199 -207 0
-205 -213 0
-211 -219 0
-217 -225 0
-223 -231 0
-229 -237 0
-241 -249 0
-247 -255 0
-253 -261 0
-259 -267 0
-265 -273 0
-271 -279 0
-277 -285 0
-289 -297 0
-295 -303 0
-301 -309 0
-307 -315 0
-313 -321 0
-319 -327 0
-325 -333 0
-337 -345 0
-343 -351 0
-349 -357 0
-355 -363 0
-361 -369 0
-367 -375 0
-373 -381 0
-4 -50 0
-10 -56 0
-16 -62 0
-22 -68 0
-28 -74 0
-34 -80 0
-40 -86 0
-46 -92 0
-52 -98 0
-58 -104 0
-64 -110 0
-70 -116 0
-76 -122 0
-82 -128 0
-88 -134 0
-94 -140 0
-100 -146 0
-106 -152 0
-112 -158 0
-118 -164 0
-124 -170 0
-130 -176 0
-136 -182 0
-142 -188 0
-148 -194 0
-154 -200 0
-160 -206 0
-166 -212 0
-172 -218 0
-178 -224 0
-184 -230 0
-190 -236 0
-196 -242 0
-202 -248 0
-208 -254 0
-214 -260 0
-220 -266 0
-226 -272 0
-232 -278 0
-238 -284 0
-244 -290 0
-250 -296 0
-256 -302 0
-262 -308 0
-268 -314 0
-274 -320 0
-280 -326 0
-286 -332 0
-292 -338 0
-298 -344 0
-304 -350 0
-310 -356 0
-316 -362 0
-322 -368 0
-328 -374 0
-334 -380 0
-1 -51 0
-7 -57 0
-13 -63 0
-19 -69 0
-25 -75 0
-31 -81 0
-37 -87 0
-43 -93 0
-49 -99 0
-55 -105 0
-61 -111 0
-67 -117 0
-73 -123 0
-79 -129 0
-85 -135 0
-91 -141 0
-97 -147 0
-103 -153 0
-109 -159 0
-115 -165 0
-121 -171 0
-127 -177 0
-133 -183 0
-139 -189 0
-145 -195 0
-151 -201 0
-157 -207 0
-163 -213 0
-169 -219 0
-175 -225 0
-181 -231 0
-187 -237 0
-193 -243 0
-199 -249 0
-205 -255 0
-211 -261 0
-217 -267 0
-223 -273 0
-229 -279 0
-235 -285 0
-241 -291 0
-247 -297 0
-253 -303 0
-259 -309 0
-265 -315 0
-271 -321 0
-277 -327 0
-283 -333 0
-289 -339 0
-295 -345 0
-301 -351 0
-307 -357 0
-313 -363 0
-319 -369 0
-325 -375 0
-331 -381 0
-2 -10 0
-8 -16 0
-14 -22 0
-20 -28 0
-26 -34 0
-32 -40 0
-38 -46 0
-50 -58 0
-56 -64 0
-62 -70 0
-68 -76 0
-74 -82 0
-80 -88 0
-86 -94 0
-98 -106 0
-104 -112 0
-110 -118 0
-116 -124 0
-122 -130 0
-128 -136 0
-134 -142 0
-146 -154 0
-152 -160 0
-158 -166 0
-164 -172 0
-170 -178 0
-176 -184 0
-182 -190 0
-194 -202 0
-200 -208 0
-206 -214 0
-212 -220 0
-218 -226 0
-224 -232 0
-230 -238 0
-242 -250 0
-248 -256 0
-254 -262 0
-260 -268 0
-266 -274 0
-272 -280 0
-278 -286 0
-290 -298 0
-296 -304 0
-302 -310 0
-308 -316 0
-314 -322 0
-320 -328 0
-326 -334 0
-338 -346 0
-344 -352 0
-350 -358 0
-356 -364 0
-362 -370 0
-368 -376 0
-374 -382 0
-1 59 57 0
-7 65 63 0
-13 71 69 0
-19 77 75 0
-25 83 81 0
-31 89 87 0
-37 95 93 0
-49 107 105 0
-55 113 111 0
-61 119 117 0
-67 125 123 0
-73 131 129 0
-79 137 135 0
-85 143 141 0
-97 155 153 0
-103 161 159 0
-109 167 165 0
-115 173 171 0
-121 179 177 0
-127 185 183 0
-133 191 189 0
-145 203 201 0
-151 209 207 0
-157 215 213 0
-163 221 219 0
-169 227 225 0
-175 233 231 0
-181 239 237 0
-193 251 249 0
-199 257 255 0
-205 263 261 0
-211 269 267 0
-217 275 273 0
-223 281 279 0
-229 287 285 0
-241 299 297 0
-247 305 303 0
-253 311 309 0
-259 317 315 0
-265 323 321 0
-271 329 327 0
-277 335 333 0
-289 347 345 0
-295 353 351 0
-301 359 357 0
-307 365 363 0
-313 371 369 0
-319 377 375 0
-325 383 381 0
-50 11 10 0
-56 17 16 0
-62 23 22 0
-68 29 28 0
-74 35 34 0
-80 41 40 0
-86 47 46 0
-98 59 58 0
-104 65 64 0
-110 71 70 0
-116 77 76 0
-122 83 82 0
-128 89 88 0
-134 95 94 0
-146 107 106 0
-152 113 112 0
-158 119 118 0
-164 125 124 0
-170 131 130 0
-176 137 136 0
-182 143 142 0
-194 155 154 0
-200 161 160 0
-206 167 166 0
-212 173 172 0
-218 179 178 0
-224 185 184 0
-230 191 190 0
-242 203 202 0
-248 209 208 0
-254 215 214 0
-260 221 220 0
-266 227 226 0
-272 233 232 0
-278 239 238 0
-290 251 250 0
-296 257 256 0
-302 263 262 0
-308 269 268 0
-314 275 274 0
-320 281 280 0
-326 287 286 0
-338 299 298 0
-344 305 304 0
-350 311 310 0
-356 317 316 0
-362 323 322 0
-368 329 328 0
-374 335 334 0
-57 5 1 0
-63 11 7 0
-69 17 13 0
-75 23 19 0
-81 29 25 0
-87 35 31 0
-93 41 37 0
-105 53 49 0
-111 59 55 0
-117 65 61 0
-123 71 67 0
-129 77 73 0
-135 83 79 0
-141 89 85 0
-153 101 97 0
-159 107 103 0
-165 113 109 0
-171 119 115 0
-177 125 121 0
-183 131 127 0
-189 137 133 0
-201 149 145 0
-207 155 151 0
-213 161 157 0
-219 167 163 0
-225 173 169 0
-231 179 175 0
-237 185 181 0
-249 197 193 0
-255 203 199 0
-261 209 205 0
-267 215 211 0
-273 221 217 0
-279 227 223 0
-285 233 229 0
-297 245 241 0
-303 251 247 0
-309 257 253 0
-315 263 259 0
-321 269 265 0
-327 275 271 0
-333 281 277 0
-345 293 289 0
-351 299 295 0
-357 305 301 0
-363 311 307 0
-369 317 313 0
-375 323 319 0
-381 329 325 0
-10 53 50 0
-16 59 56 0
-22 65 62 0
-28 71 68 0
-34 77 74 0
-40 83 80 0
-46 89 86 0
-58 101 98 0
-64 107 104 0
-70 113 110 0
-76 119 116 0
-82 125 122 0
-88 131 128 0
-94 137 134 0
-106 149 146 0
-112 155 152 0
-118 161 158 0
-124 167 164 0
-130 173 170 0
-136 179 176 0
-142 185 182 0
-154 197 194 0
-160 203 200 0
-166 209 206 0
-172 215 212 0
-178 221 218 0
-184 227 224 0
-190 233 230 0
-202 245 242 0
-208 251 248 0
-214 257 254 0
-220 263 260 0
-226 269 266 0
-232 275 272 0
-238 281 278 0
-250 293 290 0
-256 299 296 0
-262 305 302 0
-268 311 308 0
-274 317 314 0
-280 323 320 0
-286 329 326 0
-298 341 338 0
-304 347 344 0
-310 353 350 0
-316 359 356 0
-322 365 362 0
-328 371 368 0
-334 377 374 0
-53 -58 4 0
-59 -64 10 0
-65 -70 16 0
-71 -76 22 0
-77 -82 28 0
-83 -88 34 0
-89 -94 40 0
-101 -106 52 0
-107 -112 58 0
-113 -118 64 0
-119 -124 70 0
-125 -130 76 0
-131 -136 82 0
-137 -142 88 0
-149 -154 100 0
-155 -160 106 0
-161 -166 112 0
-167 -172 118 0
-173 -178 124 0
-179 -184 130 0
-185 -190 136 0
-197 -202 148 0
-203 -208 154 0
-209 -214 160 0
-215 -220 166 0
-221 -226 172 0
-227 -232 178 0
-233 -238 184 0
-245 -250 196 0
-251 -256 202 0
-257 -262 208 0
-263 -268 214 0
-269 -274 220 0
-275 -280 226 0
-281 -286 232 0
-293 -298 244 0
-299 -304 250 0
-305 -310 256 0
-311 -316 262 0
-317 -322 268 0
-323 -328 274 0
-329 -334 280 0
-341 -346 292 0
-347 -352 298 0
-353 -358 304 0
-359 -364 310 0
-365 -370 316 0
-371 -376 322 0
-377 -382 328 0
-5 -51 9 0
-2 -11 56 0
-5 -9 51 0
-4 -53 58 0
-11 -57 15 0
-8 -17 62 0
-11 -15 57 0
-10 -59 64 0
-17 -63 21 0
-14 -23 68 0
-17 -21 63 0
-16 -65 70 0
-23 -69 27 0
-20 -29 74 0
-23 -27 69 0
-22 -71 76 0
-29 -75 33 0
-26 -35 80 0
-29 -33 75 0
-28 -77 82 0
-35 -81 39 0
-32 -41 86 0
-35 -39 81 0
-34 -83 88 0
-41 -87 45 0
-38 -47 92 0
-41 -45 87 0
-40 -89 94 0
-53 -99 57 0
-50 -59 104 0
-53 -57 99 0
-52 -101 106 0
-59 -105 63 0
-56 -65 110 0
-59 -63 105 0
-58 -107 112 0
-65 -111 69 0
-62 -71 116 0
-65 -69 111 0
-64 -113 118 0
-71 -117 75 0
-68 -77 122 0
-71 -75 117 0
-70 -119 124 0
-77 -123 81 0
-74 -83 128 0
-77 -81 123 0
-76 -125 130 0
-83 -129 87 0
-80 -89 134 0
-83 -87 129 0
-82 -131 136 0
-89 -135 93 0
-86 -95 140 0
-89 -93 135 0
-88 -137 142 0
-101 -147 105 0
-98 -107 152 0
-101 -105 147 0
-100 -149 154 0
-107 -153 111 0
-104 -113 158 0
-107 -111 153 0
-106 -155 160 0
-113 -159 117 0
-110 -119 164 0
-113 -117 159 0
-112 -161 166 0
-119 -165 123 0
-116 -125 170 0
-119 -123 165 0
-118 -167 172 0
-125 -171 129 0
-122 -131 176 0
-125 -129 171 0
-124 -173 178 0
-131 -177 135 0
-128 -137 182 0
-131 -135 177 0
-130 -179 184 0
-137 -183 141 0
-134 -143 188 0
-137 -141 183 0
-136 -185 190 0
-149 -195 153 0
-146 -155 200 0
-149 -153 195 0
-148 -197 202 0
-155 -201 159 0
-152 -161 206 0
-155 -159 201 0
-154 -203 208 0
-161 -207 165 0
-158 -167 212 0
-161 -165 207 0
-160 -209 214 0
-167 -213 171 0
-164 -173 218 0
-167 -171 213 0
-166 -215 220 0
-173 -219 177 0
-170 -179 224 0
-173 -177 219 0
-172 -221 226 0
-179 -225 183 0
-176 -185 230 0
-179 -183 225 0
-178 -227 232 0
-185 -231 189 0
-182 -191 236 0
-185 -189 231 0
-184 -233 238 0
-197 -243 201 0
-194 -203 248 0
-197 -201 243 0
-196 -245 250 0
-203 -249 207 0
-200 -209 254 0
-203 -207 249 0
-202 -251 256 0
-209 -255 213 0
-206 -215 260 0
-209 -213 255 0
-208 -257 262 0
-215 -261 219 0
-212 -221 266 0
-215 -219 261 0
-214 -263 268 0
-221 -267 225 0
-218 -227 272 0
-221 -225 267 0
-220 -269 274 0
-227 -273 231 0
-224 -233 278 0
-227 -231 273 0
-226 -275 280 0
-233 -279 237 0
-230 -239 284 0
-233 -237 279 0
-232 -281 286 0
-245 -291 249 0
-242 -251 296 0
-245 -249 291 0
-244 -293 298 0
-251 -297 255 0
-248 -257 302 0
-251 -255 297 0
-250 -299 304 0
-257 -303 261 0
-254 -263 308 0
-257 -261 303 0
-256 -305 310 0
-263 -309 267 0
-260 -269 314 0
-263 -267 309 0
-262 -311 316 0
-269 -315 273 0
-266 -275 320 0
-269 -273 315 0
-268 -317 322 0
-275 -321 279 0
-272 -281 326 0
-275 -279 321 0
-274 -323 328 0
-281 -327 285 0
-278 -287 332 0
-281 -285 327 0
-280 -329 334 0
-293 -339 297 0
-290 -299 344 0
-293 -297 339 0
-292 -341 346 0
-299 -345 303 0
-296 -305 350 0
-299 -303 345 0
-298 -347 352 0
-305 -351 309 0
-302 -311 356 0
-305 -309 351 0
-304 -353 358 0
-311 -357 315 0
-308 -317 362 0
-311 -315 357 0
-310 -359 364 0
-317 -363 321 0
-314 -323 368 0
-317 -321 363 0
-316 -365 370 0
-323 -369 327 0
-320 -329 374 0
-323 -327 369 0
-322 -371 376 0
-329 -375 333 0
-326 -335 380 0
-329 -333 375 0
-328 -377 382 0
-7 -59 49 0
-11 -56 2 0
-13 -65 55 0
-17 -62 8 0
-19 -71 61 0
-23 -68 14 0
-25 -77 67 0
-29 -74 20 0
-31 -83 73 0
-35 -80 26 0
-37 -89 79 0
-41 -86 32 0
-43 -95 85 0
-47 -92 38 0
-55 -107 97 0
-59 -104 50 0
-61 -113 103 0
-65 -110 56 0
-67 -119 109 0
-71 -116 62 0
-73 -125 115 0
-77 -122 68 0
-79 -131 121 0
-83 -128 74 0
-85 -137 127 0
-89 -134 80 0
-91 -143 133 0
-95 -140 86 0
-103 -155 145 0
-107 -152 98 0
-109 -161 151 0
-113 -158 104 0
-115 -167 157 0
-119 -164 110 0
-121 -173 163 0
-125 -170 116 0
-127 -179 169 0
-131 -176 122 0
-133 -185 175 0
-137 -182 128 0
-139 -191 181 0
-143 -188 134 0
-151 -203 193 0
-155 -200 146 0
-157 -209 199 0
-161 -206 152 0
-163 -215 205 0
-167 -212 158 0
-169 -221 211 0
-173 -218 164 0
-175 -227 217 0
-179 -224 170 0
-181 -233 223 0
-185 -230 176 0
-187 -239 229 0
-191 -236 182 0
-199 -251 241 0
-203 -248 194 0
-205 -257 247 0
-209 -254 200 0
-211 -263 253 0
-215 -260 206 0
-217 -269 259 0
-221 -266 212 0
-223 -275 265 0
-227 -272 218 0
-229 -281 271 0
-233 -278 224 0
-235 -287 277 0
-239 -284 230 0
-247 -299 289 0
-251 -296 242 0
-253 -305 295 0
-257 -302 248 0
-259 -311 301 0
-263 -308 254 0
-265 -317 307 0
-269 -314 260 0
-271 -323 313 0
-275 -320 266 0
-277 -329 319 0
-281 -326 272 0
-283 -335 325 0
-287 -332 278 0
-295 -347 337 0
-299 -344 290 0
-301 -353 343 0
-305 -350 296 0
-307 -359 349 0
-311 -356 302 0
-313 -365 355 0
-317 -362 308 0
-319 -371 361 0
-323 -368 314 0
-325 -377 367 0
-329 -374 320 0
-331 -383 373 0
-335 -380 326 0
-49 -59 7 0
-55 -65 13 0
-61 -71 19 0
-67 -77 25 0
-73 -83 31 0
-79 -89 37 0
-85 -95 43 0
-97 -107 55 0
-103 -113 61 0
-109 -119 67 0
-115 -125 73 0
-121 -131 79 0
-127 -137 85 0
-133 -143 91 0
-145 -155 103 0
-151 -161 109 0
-157 -167 115 0
-163 -173 121 0
-169 -179 127 0
-175 -185 133 0
-181 -191 139 0
-193 -203 151 0
-199 -209 157 0
-205 -215 163 0
-211 -221 169 0
-217 -227 175 0
-223 -233 181 0
-229 -239 187 0
-241 -251 199 0
-247 -257 205 0
-253 -263 211 0
-259 -269 217 0
-265 -275 223 0
-271 -281 229 0
-277 -287 235 0
-289 -299 247 0
-295 -305 253 0
-301 -311 259 0
-307 -317 265 0
-313 -323 271 0
-319 -329 277 0
-325 -335 283 0
-337 -347 295 0
-343 -353 301 0
-349 -359 307 0
-355 -365 313 0
-361 -371 319 0
-367 -377 325 0
-373 -383 331 0
-5 -11 -53 59 57 0
-5 -11 -59 53 50 0
-5 -53 -59 11 10 0
-11 -17 -59 65 63 0
-11 -17 -65 59 56 0
-11 -59 -65 17 16 0
-17 -23 -65 71 69 0
-17 -23 -71 65 62 0
-17 -65 -71 23 22 0
-23 -29 -71 77 75 0
-23 -29 -77 71 68 0
-23 -71 -77 29 28 0
-29 -35 -77 83 81 0
-29 -35 -83 77 74 0
-29 -77 -83 35 34 0
-35 -41 -83 89 87 0
-35 -41 -89 83 80 0
-35 -83 -89 41 40 0
-41 -47 -89 95 93 0
-41 -47 -95 89 86 0
-41 -89 -95 47 46 0
-53 -59 -101 107 105 0
-53 -59 -107 101 98 0
-53 -101 -107 59 58 0
-59 -65 -107 113 111 0
-59 -65 -113 107 104 0
-59 -107 -113 65 64 0
-65 -71 -113 119 117 0
-65 -71 -119 113 110 0
-65 -113 -119 71 70 0
-71 -77 -119 125 123 0
-71 -77 -125 119 116 0
-71 -119 -125 77 76 0
-77 -83 -125 131 129 0
-77 -83 -131 125 122 0
-77 -125 -131 83 82 0
-83 -89 -131 137 135 0
-83 -89 -137 131 128 0
-83 -131 -137 89 88 0
-89 -95 -137 143 141 0
-89 -95 -143 137 134 0
-89 -137 -143 95 94 0
-101 -107 -149 155 153 0
-101 -107 -155 149 146 0
-101 -149 -155 107 106 0
-107 -113 -155 161 159 0
-107 -113 -161 155 152 0
-107 -155 -161 113 112 0
-113 -119 -161 167 165 0
-113 -119 -167 161 158 0
-113 -161 -167 119 118 0
-119 -125 -167 173 171 0
-119 -125 -173 167 164 0
-119 -167 -173 125 124 0
-125 -131 -173 179 177 0
-125 -131 -179 173 170 0
-125 -173 -179 131 130 0
-131 -137 -179 185 183 0
-131 -137 -185 179 176 0
-131 -179 -185 137 136 0
-137 -143 -185 191 189 0
-137 -143 -191 185 182 0
-137 -185 -191 143 142 0
-149 -155 -197 203 201 0
-149 -155 -203 197 194 0
-149 -197 -203 155 154 0
-155 -161 -203 209 207 0
-155 -161 -209 203 200 0
-155 -203 -209 161 160 0
-161 -167 -209 215 213 0
-161 -167 -215 209 206 0
-161 -209 -215 167 166 0
-167 -173 -215 221 219 0
-167 -173 -221 215 212 0
-167 -215 -221 173 172 0
-173 -179 -221 227 225 0
-173 -179 -227 221 218 0
-173 -221 -227 179 178 0
-179 -185 -227 233 231 0
-179 -185 -233 227 224 0
-179 -227 -233 185 184 0
-185 -191 -233 239 237 0
-185 -191 -239 233 230 0
-185 -233 -239 191 190 0
-197 -203 -245 251 249 0
-197 -203 -251 245 242 0
-197 -245 -251 203 202 0
-203 -209 -251 257 255 0
-203 -209 -257 251 248 0
-203 -251 -257 209 208 0
-209 -215 -257 263 261 0
-209 -215 -263 257 254 0
-209 -257 -263 215 214 0
-215 -221 -263 269 267 0
-215 -221 -269 263 260 0
-215 -263 -269 221 220 0
-221 -227 -269 275 273 0
-221 -227 -275 269 266 0
-221 -269 -275 227 226 0
-227 -233 -275 281 279 0
-227 -233 -281 275 272 0
-227 -275 -281 233 232 0
-233 -239 -281 287 285 0
-233 -239 -287 281 278 0
-233 -281 -287 239 238 0
-245 -251 -293 299 297 0
-245 -251 -299 293 290 0
-245 -293 -299 251 250 0
-251 -257 -299 305 303 0
-251 -257 -305 299 296 0
-251 -299 -305 257 256 0
-257 -263 -305 311 309 0
-257 -263 -311 305 302 0
-257 -305 -311 263 262 0
-263 -269 -311 317 315 0
-263 -269 -317 311 308 0
-263 -311 -317 269 268 0
-269 -275 -317 323 321 0
-269 -275 -323 317 314 0
-269 -317 -323 275 274 0
-275 -281 -323 329 327 0
-275 -281 -329 323 320 0
-275 -323 -329 281 280 0
-281 -287 -329 335 333 0
-281 -287 -335 329 326 0
-281 -329 -335 287 286 0
-293 -299 -341 347 345 0
-293 -299 -347 341 338 0
-293 -341 -347 299 298 0
-299 -305 -347 353 351 0
-299 -305 -353 347 344 0
-299 -347 -353 305 304 0
-305 -311 -353 359 357 0
-305 -311 -359 353 350 0
-305 -353 -359 311 310 0
-311 -317 -359 365 363 0
-311 -317 -365 359 356 0
-311 -359 -365 317 316 0
-317 -323 -365 371 369 0
-317 -323 -371 365 362 0
-317 -365 -371 323 322 0
-323 -329 -371 377 375 0
-323 -329 -377 371 368 0
-323 -371 -377 329 328 0
-329 -335 -377 383 381 0
-329 -335 -383 377 374 0
-329 -377 -383 335 334 0
-11 -59 -53 5 1 0
-17 -65 -59 11 7 0
-23 -71 -65 17 13 0
-29 -77 -71 23 19 0
-35 -83 -77 29 25 0
-41 -89 -83 35 31 0
-47 -95 -89 41 37 0
-59 -107 -101 53 49 0
-65 -113 -107 59 55 0
-71 -119 -113 65 61 0
-77 -125 -119 71 67 0
-83 -131 -125 77 73 0
-89 -137 -131 83 79 0
-95 -143 -137 89 85 0
-107 -155 -149 101 97 0
-113 -161 -155 107 103 0
-119 -167 -161 113 109 0
-125 -173 -167 119 115 0
-131 -179 -173 125 121 0
-137 -185 -179 131 127 0
-143 -191 -185 137 133 0
-155 -203 -197 149 145 0
-161 -209 -203 155 151 0
-167 -215 -209 161 157 0
-173 -221 -215 167 163 0
-179 -227 -221 173 169 0
-185 -233 -227 179 175 0
-191 -239 -233 185 181 0
-203 -251 -245 197 193 0
-209 -257 -251 203 199 0
-215 -263 -257 209 205 0
-221 -269 -263 215 211 0
-227 -275 -269 221 217 0
-233 -281 -275 227 223 0
-239 -287 -281 233 229 0
-251 -299 -293 245 241 0
-257 -305 -299 251 247 0
-263 -311 -305 257 253 0
-269 -317 -311 263 259 0
-275 -323 -317 269 265 0
-281 -329 -323 275 271 0
-287 -335 -329 281 277 0
-299 -347 -341 293 289 0
-305 -353 -347 299 295 0
-311 -359 -353 305 301 0
-317 -365 -359 311 307 0
-323 -371 -365 317 313 0
-329 -377 -371 323 319 0
-335 -383 -377 329 325 0
-1 -54 0
-1 -52 0
-1 -49 0
-1 -12 0
-1 -7 0
-1 -8 0
-2 -12 0
-2 -7 0
-2 -8 0
-4 -54 0
-4 -49 0
-4 -52 0
-7 -60 0
-7 -58 0
-7 -55 0
-7 -18 0
-7 -13 0
-7 -14 0
-8 -18 0
-8 -13 0
-8 -14 0
-9 -6 0
-9 -4 0
-9 -3 0
-10 -60 0
-10 -55 0
-10 -58 0
-10 -6 0
-10 -3 0
-10 -4 0
-13 -66 0
-13 -64 0
-13 -61 0
-13 -24 0
-13 -19 0
-13 -20 0
-14 -24 0
-14 -19 0
-14 -20 0
-15 -12 0
-15 -10 0
-15 -9 0
-16 -66 0
-16 -61 0
-16 -64 0
-16 -12 0
-16 -9 0
-16 -10 0
-19 -72 0
-19 -70 0
-19 -67 0
-19 -30 0
-19 -25 0
-19 -26 0
-20 -30 0
-20 -25 0
-20 -26 0
-21 -18 0
-21 -16 0
-21 -15 0
-22 -72 0
-22 -67 0
-22 -70 0
-22 -18 0
-22 -15 0
-22 -16 0
-25 -78 0
-25 -76 0
-25 -73 0
-25 -36 0
-25 -31 0
-25 -32 0
-26 -36 0
-26 -31 0
-26 -32 0
-27 -24 0
-27 -22 0
-27 -21 0
-28 -78 0
-28 -73 0
-28 -76 0
-28 -24 0
-28 -21 0
-28 -22 0
-31 -84 0
-31 -82 0
-31 -79 0
-31 -42 0
-31 -37 0
-31 -38 0
-32 -42 0
-32 -37 0
-32 -38 0
-33 -30 0
-33 -28 0
-33 -27 0
-34 -84 0
-34 -79 0
-34 -82 0
-34 -30 0
-34 -27 0
-34 -28 0
-37 -90 0
-37 -88 0
-37 -85 0
-37 -48 0
-37 -43 0
-37 -44 0
-38 -48 0
-38 -43 0
-38 -44 0
-39 -36 0
-39 -34 0
-39 -33 0
-40 -90 0
-40 -85 0
-40 -88 0
-40 -36 0
-40 -33 0
-40 -34 0
-43 -96 0
-43 -94 0
-43 -91 0
-45 -42 0
-45 -40 0
-45 -39 0
-46 -96 0
-46 -91 0
-46 -94 0
-46 -42 0
-46 -39 0
-46 -40 0
-49 -102 0
-49 -100 0
-49 -97 0
-49 -60 0
-49 -55 0
-49 -56 0
-50 -6 0
-50 -2 0
-50 -3 0
-50 -60 0
-50 -55 0
-50 -56 0
-51 -6 0
-51 -2 0
-51 -3 0
-52 -102 0
-52 -97 0
-52 -100 0
-55 -108 0
-55 -106 0
-55 -103 0
-55 -66 0
-55 -61 0
-55 -62 0
-56 -12 0
-56 -8 0
-56 -9 0
-56 -66 0
-56 -61 0
-56 -62 0
-57 -12 0
-57 -8 0
-57 -9 0
-57 -54 0
-57 -52 0
-57 -51 0
-58 -108 0
-58 -103 0
-58 -106 0
-58 -54 0
-58 -51 0
-58 -52 0
-61 -114 0
-61 -112 0
-61 -109 0
-61 -72 0
-61 -67 0
-61 -68 0
-62 -18 0
-62 -14 0
-62 -15 0
-62 -72 0
-62 -67 0
-62 -68 0
-63 -18 0
-63 -14 0
-63 -15 0
-63 -60 0
-63 -58 0
-63 -57 0
-64 -114 0
-64 -109 0
-64 -112 0
-64 -60 0
-64 -57 0
-64 -58 0
-67 -120 0
-67 -118 0
-67 -115 0
-67 -78 0
-67 -73 0
-67 -74 0
-68 -24 0
-68 -20 0
-68 -21 0
-68 -78 0
-68 -73 0
-68 -74 0
-69 -24 0
-69 -20 0
-69 -21 0
-69 -66 0
-69 -64 0
-69 -63 0
-70 -120 0
-70 -115 0
-70 -118 0
-70 -66 0
-70 -63 0
-70 -64 0
-73 -126 0
-73 -124 0
-73 -121 0
-73 -84 0
-73 -79 0
-73 -80 0
-74 -30 0
-74 -26 0
-74 -27 0
-74 -84 0
-74 -79 0
-74 -80 0
-75 -30 0
-75 -26 0
-75 -27 0
-75 -72 0
-75 -70 0
-75 -69 0
-76 -126 0
-76 -121 0
-76 -124 0
-76 -72 0
-76 -69 0
-76 -70 0
-79 -132 0
-79 -130 0
-79 -127 0
-79 -90 0
-79 -85 0
-79 -86 0
-80 -36 0
-80 -32 0
-80 -33 0
-80 -90 0
-80 -85 0
-80 -86 0
-81 -36 0
-81 -32 0
-81 -33 0
-81 -78 0
-81 -76 0
-81 -75 0
-82 -132 0
-82 -127 0
-82 -130 0
-82 -78 0
-82 -75 0
-82 -76 0
-85 -138 0
-85 -136 0
-85 -133 0
-85 -96 0
-85 -91 0
-85 -92 0
-86 -42 0
-86 -38 0
-86 -39 0
-86 -96 0
-86 -91 0
-86 -92 0
-87 -42 0
-87 -38 0
-87 -39 0
-87 -84 0
-87 -82 0
-87 -81 0
-88 -138 0
-88 -133 0
-88 -136 0
-88 -84 0
-88 -81 0
-88 -82 0
-91 -144 0
-91 -142 0
-91 -139 0
-92 -48 0
-92 -44 0
-92 -45 0
-93 -48 0
-93 -44 0
-93 -45 0
-93 -90 0
-93 -88 0
-93 -87 0
-94 -144 0
-94 -139 0
-94 -142 0
-94 -90 0
-94 -87 0
-94 -88 0
-97 -150 0
-97 -148 0
-97 -145 0
-97 -108 0
-97 -103 0
-97 -104 0
-98 -54 0
-98 -50 0
-98 -51 0
-98 -108 0
-98 -103 0
-98 -104 0
-99 -54 0
-99 -50 0
-99 -51 0
-100 -150 0
-100 -145 0
-100 -148 0
-103 -156 0
-103 -154 0
-103 -151 0
-103 -114 0
-103 -109 0
-103 -110 0
-104 -60 0
-104 -56 0
-104 -57 0
-104 -114 0
-104 -109 0
-104 -110 0
-105 -60 0
-105 -56 0
-105 -57 0
-105 -102 0
-105 -100 0
-105 -99 0
-106 -156 0
-106 -151 0
-106 -154 0
-106 -102 0
-106 -99 0
-106 -100 0
-109 -162 0
-109 -160 0
-109 -157 0
-109 -120 0
-109 -115 0
-109 -116 0
-110 -66 0
-110 -62 0
-110 -63 0
-110 -120 0
-110 -115 0
-110 -116 0
-111 -66 0
-111 -62 0
-111 -63 0
-111 -108 0
-111 -106 0
-111 -105 0
-112 -162 0
-112 -157 0
-112 -160 0
-112 -108 0
-112 -105 0
-112 -106 0
-115 -168 0
-115 -166 0
-115 -163 0
-115 -126 0
-115 -121 0
-115 -122 0
-116 -72 0
-116 -68 0
-116 -69 0
-116 -126 0
-116 -121 0
-116 -122 0
-117 -72 0
-117 -68 0
-117 -69 0
-117 -114 0
-117 -112 0
-117 -111 0
-118 -168 0
-118 -163 0
-118 -166 0
-118 -114 0
-118 -111 0
-118 -112 0
-121 -174 0
-121 -172 0
-121 -169 0
-121 -132 0
-121 -127 0
-121 -128 0
-122 -78 0
-122 -74 0
-122 -75 0
-122 -132 0
-122 -127 0
-122 -128 0
-123 -78 0
-123 -74 0
-123 -75 0
-123 -120 0
-123 -118 0
-123 -117 0
-124 -174 0
-124 -169 0
-124 -172 0
-124 -120 0
-124 -117 0
-124 -118 0
-127 -180 0
-127 -178 0
-127 -175 0
-127 -138 0
-127 -133 0
-127 -134 0
-128 -84 0
-128 -80 0
-128 -81 0
-128 -138 0
-128 -133 0
-128 -134 0
-129 -84 0
-129 -80 0
-129 -81 0
-129 -126 0
-129 -124 0
-129 -123 0
-130 -180 0
-130 -175 0
-130 -178 0
-130 -126 0
-130 -123 0
-130 -124 0
-133 -186 0
-133 -184 0
-133 -181 0
-133 -144 0
-133 -139 0
-133 -140 0
-134 -90 0
-134 -86 0
-134 -87 0
-134 -144 0
-134 -139 0
-134 -140 0
-135 -90 0
-135 -86 0
-135 -87 0
-135 -132 0
-135 -130 0
-135 -129 0
-136 -186 0
-136 -181 0
-136 -184 0
-136 -132 0
-136 -129 0
-136 -130 0
-139 -192 0
-139 -190 0
-139 -187 0
-140 -96 0
-140 -92 0
-140 -93 0
-141 -96 0
-141 -92 0
-141 -93 0
-141 -138 0
-141 -136 0
-141 -135 0
-142 -192 0
-142 -187 0
-142 -190 0
-142 -138 0
-142 -135 0
-142 -136 0
-145 -198 0
-145 -196 0
-145 -193 0
-145 -156 0
-145 -151 0
-145 -152 0
-146 -102 0
-146 -98 0
-146 -99 0
-146 -156 0
-146 -151 0
-146 -152 0
-147 -102 0
-147 -98 0
-147 -99 0
-148 -198 0
-148 -193 0
-148 -196 0
-151 -204 0
-151 -202 0
-151 -199 0
-151 -162 0
-151 -157 0
-151 -158 0
-152 -108 0
-152 -104 0
-152 -105 0
-152 -162 0
-152 -157 0
-152 -158 0
-153 -108 0
-153 -104 0
-153 -105 0
-153 -150 0
-153 -148 0
-153 -147 0
-154 -204 0
-154 -199 0
-154 -202 0
-154 -150 0
-154 -147 0
-154 -148 0
-157 -210 0
-157 -208 0
-157 -205 0
-157 -168 0
-157 -163 0
-157 -164 0
-158 -114 0
-158 -110 0
-158 -111 0
-158 -168 0
-158 -163 0
-158 -164 0
-159 -114 0
-159 -110 0
-159 -111 0
-159 -156 0
-159 -154 0
-159 -153 0
-160 -210 0
-160 -205 0
-160 -208 0
-160 -156 0
-160 -153 0
-160 -154 0
-163 -216 0
-163 -214 0
-163 -211 0
-163 -174 0
-163 -169 0
-163 -170 0
-164 -120 0
-164 -116 0
-164 -117 0
-164 -174 0
-164 -169 0
-164 -170 0
-165 -120 0
-165 -116 0
-165 -117 0
-165 -162 0
-165 -160 0
-165 -159 0
-166 -216 0
-166 -211 0
-166 -214 0
-166 -162 0
-166 -159 0
-166 -160 0
-169 -222 0
-169 -220 0
-169 -217 0
-169 -180 0
-169 -175 0
-169 -176 0
-170 -126 0
-170 -122 0
-170 -123 0
-170 -180 0
-170 -175 0
-170 -176 0
-171 -126 0
-171 -122 0
-171 -123 0
-171 -168 0
-171 -166 0
-171 -165 0
-172 -222 0
-172 -217 0
-172 -220 0
-172 -168 0
-172 -165 0
-172 -166 0
-175 -228 0
-175 -226 0
-175 -223 0
-175 -186 0
-175 -181 0
-175 -182 0
-176 -132 0
-176 -128 0
-176 -129 0
-176 -186 0
-176 -181 0
-176 -182 0
-177 -132 0
-177 -128 0
-177 -129 0
-177 -174 0
-177 -172 0
-177 -171 0
-178 -228 0
-178 -223 0
-178 -226 0
-178 -174 0
-178 -171 0
-178 -172 0
-181 -234 0
-181 -232 0
-181 -229 0
-181 -192 0
-181 -187 0
-181 -188 0
-182 -138 0
-182 -134 0
-182 -135 0
-182 -192 0
-182 -187 0
-182 -188 0
-183 -138 0
-183 -134 0
-183 -135 0
-183 -180 0
-183 -178 0
-183 -177 0
-184 -234 0
-184 -229 0
-184 -232 0
-184 -180 0
-184 -177 0
-184 -178 0
-187 -240 0
-187 -238 0
-187 -235 0
-188 -144 0
-188 -140 0
-188 -141 0
-189 -144 0
-189 -140 0
-189 -141 0
-189 -186 0
-189 -184 0
-189 -183 0
-190 -240 0
-190 -235 0
-190 -238 0
-190 -186 0
-190 -183 0
-190 -184 0
-193 -246 0
-193 -244 0
-193 -241 0
-193 -204 0
-193 -199 0
-193 -200 0
-194 -150 0
-194 -146 0
-194 -147 0
-194 -204 0
-194 -199 0
-194 -200 0
-195 -150 0
-195 -146 0
-195 -147 0
-196 -246 0
-196 -241 0
-196 -244 0
-199 -252 0
-199 -250 0
-199 -247 0
-199 -210 0
-199 -205 0
-199 -206 0
-200 -156 0
-200 -152 0
-200 -153 0
-200 -210 0
-200 -205 0
-200 -206 0
-201 -156 0
-201 -152 0
-201 -153 0
-201 -198 0
-201 -196 0
-201 -195 0
-202 -252 0
-202 -247 0
-202 -250 0
-202 -198 0
-202 -195 0
-202 -196 0
-205 -258 0
-205 -256 0
-205 -253 0
-205 -216 0
-205 -211 0
-205 -212 0
-206 -162 0
-206 -158 0
-206 -159 0
-206 -216 0
-206 -211 0
-206 -212 0
-207 -162 0
-207 -158 0
-207 -159 0
-207 -204 0
-207 -202 0
-207 -201 0
-208 -258 0
-208 -253 0
-208 -256 0
-208 -204 0
-208 -201 0
-208 -202 0
-211 -264 0
-211 -262 0
-211 -259 0
-211 -222 0
-211 -217 0
-211 -218 0
-212 -168 0
-212 -164 0
-212 -165 0
-212 -222 0
-212 -217 0
-212 -218 0
-213 -168 0
-213 -164 0
-213 -165 0
-213 -210 0
-213 -208 0
-213 -207 0
-214 -264 0
-214 -259 0
-214 -262 0
-214 -210 0
-214 -207 0
-214 -208 0
-217 -270 0
-217 -268 0
-217 -265 0
-217 -228 0
-217 -223 0
-217 -224 0
-218 -174 0
-218 -170 0
-218 -171 0
-218 -228 0
-218 -223 0
-218 -224 0
-219 -174 0
-219 -170 0
-219 -171 0
-219 -216 0
-219 -214 0
-219 -213 0
-220 -270 0
-220 -265 0
-220 -268 0
-220 -216 0
-220 -213 0
-220 -214 0
-223 -276 0
-223 -274 0
-223 -271 0
-223 -234 0
-223 -229 0
-223 -230 0
-224 -180 0
-224 -176 0
-224 -177 0
-224 -234 0
-224 -229 0
-224 -230 0
-225 -180 0
-225 -176 0
-225 -177 0
-225 -222 0
-225 -220 0
-225 -219 0
-226 -276 0
-226 -271 0
-226 -274 0
-226 -222 0
-226 -219 0
-226 -220 0
-229 -282 0
-229 -280 0
-229 -277 0
-229 -240 0
-229 -235 0
-229 -236 0
-230 -186 0
-230 -182 0
-230 -183 0
-230 -240 0
-230 -235 0
-230 -236 0
-231 -186 0
-231 -182 0
-231 -183 0
-231 -228 0
-231 -226 0
-231 -225 0
-232 -282 0
-232 -277 0
-232 -280 0
-232 -228 0
-232 -225 0
-232 -226 0
-235 -288 0
-235 -286 0
-235 -283 0
-236 -192 0
-236 -188 0
-236 -189 0
-237 -192 0
-237 -188 0
-237 -189 0
-237 -234 0
-237 -232 0
-237 -231 0
-238 -288 0
-238 -283 0
-238 -286 0
-238 -234 0
-238 -231 0
-238 -232 0
-241 -294 0
-241 -292 0
-241 -289 0
-241 -252 0
-241 -247 0
-241 -248 0
-242 -198 0
-242 -194 0
-242 -195 0
-242 -252 0
-242 -247 0
-242 -248 0
-243 -198 0
-243 -194 0
-243 -195 0
-244 -294 0
-244 -289 0
-244 -292 0
-247 -300 0
-247 -298 0
-247 -295 0
-247 -258 0
-247 -253 0
-247 -254 0
-248 -204 0
-248 -200 0
-248 -201 0
-248 -258 0
-248 -253 0
-248 -254 0
-249 -204 0
-249 -200 0
-249 -201 0
-249 -246 0
-249 -244 0
-249 -243 0
-250 -300 0
-250 -295 0
-250 -298 0
-250 -246 0
-250 -243 0
-250 -244 0
-253 -306 0
-253 -304 0
-253 -301 0
-253 -264 0
-253 -259 0
-253 -260 0
-254 -210 0
-254 -206 0
-254 -207 0
-254 -264 0
-254 -259 0
-254 -260 0
-255 -210 0
-255 -206 0
-255 -207 0
-255 -252 0
-255 -250 0
-255 -249 0
-256 -306 0
-256 -301 0
-256 -304 0
-256 -252 0
-256 -249 0
-256 -250 0
-259 -312 0
-259 -310 0
-259 -307 0
-259 -270 0
-259 -265 0
-259 -266 0
-260 -216 0
-260 -212 0
-260 -213 0
-260 -270 0
-260 -265 0
-260 -266 0
-261 -216 0
-261 -212 0
-261 -213 0
-261 -258 0
-261 -256 0
-261 -255 0
-262 -312 0
-262 -307 0
-262 -310 0
-262 -258 0
-262 -255 0
-262 -256 0
-265 -318 0
-265 -316 0
-265 -313 0
-265 -276 0
-265 -271 0
-265 -272 0
-266 -222 0
-266 -218 0
-266 -219 0
-266 -276 0
-266 -271 0
-266 -272 0
-267 -222 0
-267 -218 0
-267 -219 0
-267 -264 0
-267 -262 0
-267 -261 0
-268 -318 0
-268 -313 0
-268 -316 0
-268 -264 0
-268 -261 0
-268 -262 0
-271 -324 0
-271 -322 0
-271 -319 0
-271 -282 0
-271 -277 0
-271 -278 0
-272 -228 0
-272 -224 0
-272 -225 0
-272 -282 0
-272 -277 0
-272 -278 0
-273 -228 0
-273 -224 0
-273 -225 0
-273 -270 0
-273 -268 0
-273 -267 0
-274 -324 0
-274 -319 0
-274 -322 0
-274 -270 0
-274 -267 0
-274 -268 0
-277 -330 0
-277 -328 0
-277 -325 0
-277 -288 0
-277 -283 0
-277 -284 0
-278 -234 0
-278 -230 0
-278 -231 0
-278 -288 0
-278 -283 0
-278 -284 0
-279 -234 0
-279 -230 0
-279 -231 0
-279 -276 0
-279 -274 0
-279 -273 0
-280 -330 0
-280 -325 0
-280 -328 0
-280 -276 0
-280 -273 0
-280 -274 0
-283 -336 0
-283 -334 0
-283 -331 0
-284 -240 0
-284 -236 0
-284 -237 0
-285 -240 0
-285 -236 0
-285 -237 0
-285 -282 0
-285 -280 0
-285 -279 0
-286 -336 0
-286 -331 0
-286 -334 0
-286 -282 0
-286 -279 0
-286 -280 0
-289 -342 0
-289 -340 0
-289 -337 0
-289 -300 0
-289 -295 0
-289 -296 0
-290 -246 0
-290 -242 0
-290 -243 0
-290 -300 0
-290 -295 0
-290 -296 0
-291 -246 0
-291 -242 0
-291 -243 0
-292 -342 0
-292 -337 0
-292 -340 0
-295 -348 0
-295 -346 0
-295 -343 0
-295 -306 0
-295 -301 0
-295 -302 0
-296 -252 0
-296 -248 0
-296 -249 0
-296 -306 0
-296 -301 0
-296 -302 0
-297 -252 0
-297 -248 0
-297 -249 0
-297 -294 0
-297 -292 0
-297 -291 0
-298 -348 0
-298 -343 0
-298 -346 0
-298 -294 0
-298 -291 0
-298 -292 0
-301 -354 0
-301 -352 0
-301 -349 0
-301 -312 0
-301 -307 0
-301 -308 0
-302 -258 0
-302 -254 0
-302 -255 0
-302 -312 0
-302 -307 0
-302 -308 0
-303 -258 0
-303 -254 0
-303 -255 0
-303 -300 0
-303 -298 0
-303 -297 0
-304 -354 0
-304 -349 0
-304 -352 0
-304 -300 0
-304 -297 0
-304 -298 0
-307 -360 0
-307 -358 0
-307 -355 0
-307 -318 0
-307 -313 0
-307 -314 0
-308 -264 0
-308 -260 0
-308 -261 0
-308 -318 0
-308 -313 0
-308 -314 0
-309 -264 0
-309 -260 0
-309 -261 0
-309 -306 0
-309 -304 0
-309 -303 0
-310 -360 0
-310 -355 0
-310 -358 0
-310 -306 0
-310 -303 0
-310 -304 0
-313 -366 0
-313 -364 0
-313 -361 0
-313 -324 0
-313 -319 0
-313 -320 0
-314 -270 0
-314 -266 0
-314 -267 0
-314 -324 0
-314 -319 0
-314 -320 0
-315 -270 0
-315 -266 0
-315 -267 0
-315 -312 0
-315 -310 0
-315 -309 0
-316 -366 0
-316 -361 0
-316 -364 0
-316 -312 0
-316 -309 0
-316 -310 0
-319 -372 0
-319 -370 0
-319 -367 0
-319 -330 0
-319 -325 0
-319 -326 0
-320 -276 0
-320 -272 0
-320 -273 0
-320 -330 0
-320 -325 0
-320 -326 0
-321 -276 0
-321 -272 0
-321 -273 0
-321 -318 0
-321 -316 0
-321 -315 0
-322 -372 0
-322 -367 0
-322 -370 0
-322 -318 0
-322 -315 0
-322 -316 0
-325 -378 0
-325 -376 0
-325 -373 0
-325 -336 0
-325 -331 0
-325 -332 0
-326 -282 0
-326 -278 0
-326 -279 0
-326 -336 0
-326 -331 0
-326 -332 0
-327 -282 0
-327 -278 0
-327 -279 0
-327 -324 0
-327 -322 0
-327 -321 0
-328 -378 0
-328 -373 0
-328 -376 0
-328 -324 0
-328 -321 0
-328 -322 0
-331 -384 0
-331 -382 0
-331 -379 0
-332 -288 0
-332 -284 0
-332 -285 0
-333 -288 0
-333 -284 0
-333 -285 0
-333 -330 0
-333 -328 0
-333 -327 0
-334 -384 0
-334 -379 0
-334 -382 0
-334 -330 0
-334 -327 0
-334 -328 0
-337 -348 0
-337 -343 0
-337 -344 0
-338 -294 0
-338 -290 0
-338 -291 0
-338 -348 0
-338 -343 0
-338 -344 0
-339 -294 0
-339 -290 0
-339 -291 0
-343 -354 0
-343 -349 0
-343 -350 0
-344 -300 0
-344 -296 0
-344 -297 0
-344 -354 0
-344 -349 0
-344 -350 0
-345 -300 0
-345 -296 0
-345 -297 0
-345 -342 0
-345 -340 0
-345 -339 0
-346 -342 0
-346 -339 0
-346 -340 0
-349 -360 0
-349 -355 0
-349 -356 0
-350 -306 0
-350 -302 0
-350 -303 0
-350 -360 0
-350 -355 0
-350 -356 0
-351 -306 0
-351 -302 0
-351 -303 0
-351 -348 0
-351 -346 0
-351 -345 0
-352 -348 0
-352 -345 0
-352 -346 0
-355 -366 0
-355 -361 0
-355 -362 0
-356 -312 0
-356 -308 0
-356 -309 0
-356 -366 0
-356 -361 0
-356 -362 0
-357 -312 0
-357 -308 0
-357 -309 0
-357 -354 0
-357 -352 0
-357 -351 0
-358 -354 0
-358 -351 0
-358 -352 0
-361 -372 0
-361 -367 0
-361 -368 0
-362 -318 0
-362 -314 0
-362 -315 0
-362 -372 0
-362 -367 0
-362 -368 0
-363 -318 0
-363 -314 0
-363 -315 0
-363 -360 0
-363 -358 0
-363 -357 0
-364 -360 0
-364 -357 0
-364 -358 0
-367 -378 0
-367 -373 0
-367 -374 0
-368 -324 0
-368 -320 0
-368 -321 0
-368 -378 0
-368 -373 0
-368 -374 0
-369 -324 0
-369 -320 0
-369 -321 0
-369 -366 0
-369 -364 0
-369 -363 0
-370 -366 0
-370 -363 0
-370 -364 0
-373 -384 0
-373 -379 0
-373 -380 0
-374 -330 0
-374 -326 0
-374 -327 0
-374 -384 0
-374 -379 0
-374 -380 0
-375 -330 0
-375 -326 0
-375 -327 0
-375 -372 0
-375 -370 0
-375 -369 0
-376 -372 0
-376 -369 0
-376 -370 0
-380 -336 0
-380 -332 0
-380 -333 0
-381 -336 0
-381 -332 0
-381 -333 0
-381 -378 0
-381 -376 0
-381 -375 0
-382 -378 0
-382 -375 0
-382 -376 0
